231425
228651
228651
228651
226804
226804
226804
224923
223537
223537
223066
220987
219616
219616
217754
217754
217383
217383
213982
213982
212179
212179
212179
208457
207148
207148
207148
207148
207148
207148
207148
206687
206431
206431
204106
204106
204106
203820
202658
202456
201691
201691
201621
201621
201621
200576
199128
199128
199128
199036
198831
198831
198831
197741
197285
196849
196715
195919
195601
195347
194803
194136
193924
193924
193482
192433
191129
191129
191129
191129
190600
188789
188789
188789
188789
188789
188789
188789
185874
185874
185874
185874
185874
185840
184861
184861
184861
184861
184230
183763
183757
180773
180773
180773
180773
180773
180773
180773
180773
178862
